	Costo	Iter.	Tiempo
1	530,64	283	31,952
2	856,56	249	47,079
3	849,34	248	106,473
4	1072,43	298	297,319
5	1384,35	168	296,548
6	560,88	257	25,307
7	922,13	269	126,207
8	890,45	182	126,846
9	1218,31	202	1589,037
10	1502,31	270	10440,509
11	1220,29	129	90,88
12	819,55	263	104,226
13	1659,23	153	109,288
14	877,88	299	124,098
